c 
p cnf 121 202
20 2 21 0
20 2 -21 0
-19 -6 -1 0
7 -4 22 0
-22 -19 9 0
-19 23 24 0
-19 23 -24 0
-19 -23 24 0
-19 -23 -24 0
18 -12 25 0
-25 20 -2 0
-6 19 26 0
-6 19 -26 0
-9 -11 13 0
-14 -2 27 0
-27 11 28 0
-28 -16 -9 0
-20 14 29 0
-29 -5 30 0
-30 -12 7 0
19 31 32 0
19 31 -32 0
19 -31 32 0
19 -31 -32 0
-7 -4 33 0
-33 15 -14 0
9 15 34 0
-34 -5 35 0
-35 8 -16 0
-4 12 36 0
-4 12 -36 0
11 -9 37 0
11 -9 -37 0
6 -2 38 0
-38 17 -14 0
2 17 39 0
-39 9 -4 0
7 6 40 0
-40 -10 41 0
-41 -1 -14 0
-6 -11 42 0
-6 -11 -42 0
-14 -4 43 0
-43 6 44 0
-44 12 3 0
-7 -4 45 0
-45 20 46 0
-46 -8 19 0
10 4 47 0
10 4 -47 0
1 48 49 0
1 48 -49 0
1 -48 49 0
1 -48 -49 0
-12 16 50 0
-50 17 51 0
-51 -8 -6 0
-10 14 52 0
-52 -9 19 0
8 -18 -5 0
11 53 54 0
11 53 -54 0
11 -53 54 0
11 -53 -54 0
16 15 55 0
16 15 -55 0
15 56 57 0
15 56 -57 0
15 -56 57 0
15 -56 -57 0
7 58 59 0
7 58 -59 0
7 -58 59 0
7 -58 -59 0
2 -14 60 0
-60 19 4 0
-9 20 61 0
-61 19 -14 0
15 -18 -7 0
19 -15 -4 0
-4 62 63 0
-4 62 -63 0
-4 -62 63 0
-4 -62 -63 0
15 64 65 0
15 64 -65 0
15 -64 65 0
15 -64 -65 0
-1 10 11 0
2 66 67 0
2 66 -67 0
2 -66 67 0
2 -66 -67 0
13 6 11 0
-14 15 -16 0
2 -7 68 0
2 -7 -68 0
10 -5 4 0
-14 69 70 0
-14 69 -70 0
-14 -69 70 0
-14 -69 -70 0
-2 12 71 0
-71 7 72 0
-72 20 19 0
14 73 74 0
14 73 -74 0
14 -73 74 0
14 -73 -74 0
-18 19 -15 0
3 11 75 0
3 11 -75 0
9 7 76 0
-76 14 -18 0
12 3 77 0
-77 9 -15 0
7 20 78 0
-78 -13 79 0
-79 16 -11 0
10 -9 80 0
-80 -3 20 0
11 -8 81 0
-81 2 82 0
-82 -17 4 0
-10 83 84 0
-10 83 -84 0
-10 -83 84 0
-10 -83 -84 0
20 -15 85 0
-85 10 86 0
-86 -14 -5 0
-18 87 88 0
-18 87 -88 0
-18 -87 88 0
-18 -87 -88 0
9 89 90 0
9 89 -90 0
9 -89 90 0
9 -89 -90 0
8 91 92 0
8 91 -92 0
8 -91 92 0
8 -91 -92 0
-18 93 94 0
-18 93 -94 0
-18 -93 94 0
-18 -93 -94 0
4 -18 95 0
-95 -17 7 0
-18 10 96 0
-18 10 -96 0
-12 97 98 0
-12 97 -98 0
-12 -97 98 0
-12 -97 -98 0
-14 12 99 0
-99 18 17 0
17 -18 100 0
17 -18 -100 0
-19 2 -5 0
-3 -12 101 0
-101 14 102 0
-102 9 -18 0
1 12 103 0
1 12 -103 0
-5 18 104 0
-104 -7 14 0
-11 8 105 0
-105 -13 106 0
-106 16 18 0
19 -8 107 0
19 -8 -107 0
3 9 108 0
-108 -2 -4 0
16 109 110 0
16 109 -110 0
16 -109 110 0
16 -109 -110 0
-15 9 -10 0
15 7 111 0
15 7 -111 0
10 5 4 0
-6 112 113 0
-6 112 -113 0
-6 -112 113 0
-6 -112 -113 0
-16 1 114 0
-114 -9 115 0
-115 -2 -15 0
-12 -13 3 0
3 10 116 0
-116 -16 19 0
15 117 118 0
15 117 -118 0
15 -117 118 0
15 -117 -118 0
14 119 120 0
14 119 -120 0
14 -119 120 0
14 -119 -120 0
12 -15 121 0
-121 -11 20 0
